866006
95,25,78,73,22,84,92,39,14,86,81,7,66,4,45,87,76,38,50,88,83,35,97,42,91,44,55,72,36,99,80,68,13,63,93,62,31,60,32,74,37,48,1,70,47,57,33,9,20,21,96,30,77,10,49,56,18,41,69,75,6,53,8,89,85,3,5,64,2,27,61,15,16,58,82,67,46,28,11,23,98,54,65,52,43,24,17,26,94,29,79,51,40,12,19,59,90,71,34